(declare-fun X_0 () Real)
(declare-fun X_1 () Real)
(declare-fun X_2 () Real)
(declare-fun X_3 () Real)
(declare-fun X_4 () Real)
(declare-fun Y_0 () Real)
(declare-fun Y_1 () Real)
(declare-fun Y_2 () Real)
(declare-fun Y_3 () Real)
(declare-fun Y_4 () Real)
(assert (<= (* -1.0 X_0) 0.30353115613746867))
(assert (<= (* 1.0 X_0) -0.29855281193475053))
(assert (<= (* -1.0 X_1) 0.009549296585513092))
(assert (<= (* 1.0 X_1) 0.009549296585513092))
(assert (<= (* -1.0 X_2) -0.4933803235848431))
(assert (<= (* 1.0 X_2) 0.4997465213085185))
(assert (<= (* -1.0 X_3) -0.3181818181818182))
(assert (<= (* 1.0 X_3) 0.5))
(assert (<= (* -1.0 X_4) -0.08333333333333333))
(assert (<= (* 1.0 X_4) 0.16666666666666666))
(assert (<= (+ (* 1.0 Y_0) (* -1.0 Y_1)) 0.0))
(assert (<= (+ (* 1.0 Y_0) (* -1.0 Y_2)) 0.0))
(assert (<= (+ (* 1.0 Y_0) (* -1.0 Y_3)) 0.0))
(assert (<= (+ (* 1.0 Y_0) (* -1.0 Y_4)) 0.0))
